Version identifier: 22.1.1.0 | 2022-11-28 | 9160aff4d
CPXPARAM_ClockType                               1
CPXPARAM_Read_DataCheck                          1
CPXPARAM_Threads                                 1
CPXPARAM_TimeLimit                               7200
CPXPARAM_MIP_Tolerances_AbsMIPGap                0
CPXPARAM_MIP_Tolerances_MIPGap                   0
CPXPARAM_MIP_Tolerances_Integrality              0
Tried aggregator 1 time.
MIP Presolve eliminated 245487 rows and 9 columns.
MIP Presolve modified 89138 coefficients.
Reduced MIP has 112694 rows, 18261 columns, and 730726 nonzeros.
Reduced MIP has 18261 binaries, 0 generals, 0 SOSs, and 0 indicators.
Presolve time = 5.00 sec. (2912.50 ticks)
Probing time = 0.03 sec. (8.42 ticks)
Tried aggregator 1 time.
Detecting symmetries...
MIP Presolve eliminated 130 rows and 0 columns.
Reduced MIP has 112564 rows, 18261 columns, and 727996 nonzeros.
Reduced MIP has 18261 binaries, 0 generals, 0 SOSs, and 0 indicators.
Presolve time = 2.01 sec. (1188.78 ticks)
Probing time = 0.03 sec. (8.39 ticks)
Clique table members: 101319.
MIP emphasis: balance optimality and feasibility.
MIP search method: dynamic search.
Parallel mode: none, using 1 thread.
Root relaxation solution time = 7214.05 sec. (4325857.31 ticks)

        Nodes                                         Cuts/
   Node  Left     Objective  IInf  Best Integer    Best Bound    ItCnt     Gap

      0     0   1.00000e+37     0                  15750.0000  2504193         

Root node processing (before b&c):
  Real time             = 7224.23 sec. (4331858.36 ticks)
Sequential b&c:
  Real time             =    0.00 sec. (0.00 ticks)
                          ------------
Total (root+branch&cut) = 7224.23 sec. (4331858.36 ticks)
Solution is infeasible.

---------------------
@@@ MIP_time_limit_infeasible
Traceback (most recent call last):
  File "/scratch/scherif/DiverseSAT-journal_sup/DiverseSAT_Supplementary_Experiments/experiment-1/cplex/jobs/../solvers/CPLEX-IW-SE.py", line 105, in <module>
    print(f">>> Benchmark {os.path.basename(cnf_file)} k {k} OPT {int(prob.solution.get_objective_value())}"
  File "/users/scherif/.local/lib/python3.9/site-packages/cplex/_internal/_subinterfaces.py", line 7211, in get_objective_value
    return CPX_PROC.getobjval(self._env._e, self._cplex._lp)
  File "/users/scherif/.local/lib/python3.9/site-packages/cplex/_internal/_procedural.py", line 2055, in getobjval
    check_status(env, status)
  File "/users/scherif/.local/lib/python3.9/site-packages/cplex/_internal/_procedural.py", line 249, in __call__
    raise CplexSolverError(error_string, env, status)
cplex.exceptions.errors.CplexSolverError: CPLEX Error  1217: No solution exists.
